Maximize
  0.00818908433357701 Z_716_0_0 + 0.7749826325833058 Z_716_0_1
   + 0.00112856326006739 Z_716_0_2 + 0.00374076143153866 Z_716_0_3
   + 0.1119589583915112 Z_716_0_4 + 0.0154141663168341 Z_557_0_0
   + 0.7848888832428383 Z_557_0_1 + 0.0344071393837339 Z_557_0_2
   + 0.0133443994821696 Z_557_0_3 + 0.051945411574424 Z_557_0_4
   + 0.00726853403509816 Z_404_0_0 + 0.6118466125992574 Z_404_0_1
   + 0.0179346773629661 Z_404_0_2 + 0.124357779786892 Z_404_0_3
   + 0.1385923962157862 Z_404_0_4 + 0.00609794510838912 Z_636_0_0
   + 0.00231716156256918 Z_636_0_1 + 0.5475998827094776 Z_636_0_2
   + 0.00457212961689788 Z_636_0_3 + 0.3394128810026662 Z_636_0_4
   + 0.1251465236236616 Z_90_0_0 + 0.5570814662973899 Z_90_0_1
   + 0.00141237 Z_90_0_2 + 0.0603224192418346 Z_90_0_3
   + 0.1560372208086416 Z_90_0_4 + 0.0311205862165218 Z_144_0_0
   + 0.7411258813244063 Z_144_0_1 + 0.00285717348952607 Z_144_0_2
   + 0.0071562948720583 Z_144_0_3 + 0.1177400640974876 Z_144_0_4
   + 8.1028025828549621e-04 Z_263_0_0 + 6.478996232724733e-04 Z_263_0_1
   + 0.6046292202956378 Z_263_0_2 + 0.0014199724668722 Z_263_0_3
   + 0.2924926273559321 Z_263_0_4 + 7.7012644232306705e-04 Z_612_0_0
   + 0.00149141525911343 Z_612_0_1 + 0.4745912526319164 Z_612_0_2
   + 0.00184514040507011 Z_612_0_3 + 0.4213020652615768 Z_612_0_4
   + 0.0268719290265605 Z_700_8_0 + 0.00602859950473941 Z_700_8_1
   + 0.3046394262887519 Z_700_8_2 + 0.00915874770933068 Z_700_8_3
   + 0.5533012974706176 Z_700_8_4 + 0.011947412933073 Z_700_2_0
   + 0.0195070835223481 Z_700_2_1 + 0.1800767881361894 Z_700_2_2
   + 0.00552706966330468 Z_700_2_3 + 0.6829416457450849 Z_700_2_4
   + 1.1006857007877928e-04 Z_700_4_0 + 0.0118441557180006 Z_700_4_1
   + 0.3326523954144833 Z_700_4_2 + 0.00342933394625347 Z_700_4_3
   + 0.5519640463511837 Z_700_4_4 + 0.0129540525059683 Z_700_7_0
   + 0.1974642196683619 Z_700_7_1 + 8.5271865320842618e-04 Z_700_7_2
   + 0.070313455916905 Z_700_7_3 + 0.6184155532555563 Z_700_7_4
   + 0.00141034544486946 Z_700_1_0 + 0.00199411917356718 Z_700_1_1
   + 0.00915546050187996 Z_700_1_2 + 0.00357379186637009 Z_700_1_3
   + 0.8838662830133133 Z_700_1_4 + 1.1006857007877928e-04 Z_700_3_0
   + 0.0118441557180006 Z_700_3_1 + 0.3326523954144833 Z_700_3_2
   + 0.00342933394625347 Z_700_3_3 + 0.5519640463511837 Z_700_3_4
   + 0.3709755021822327 Z_700_5_0 + 0.0939585769320455 Z_700_5_1
   + 0.0215300021075649 Z_700_5_2 + 0.00149152317631007 Z_700_5_3
   + 0.4120443956018469 Z_700_5_4 + 0.0237752632995308 Z_700_6_0
   + 0.4778716293783788 Z_700_6_1 + 0.00234361954944419 Z_700_6_2
   + 0.0690774437533976 Z_700_6_3 + 0.3269320440192485 Z_700_6_4
Subject To
 constraint1_7160: Z_716_0_0 + Z_716_0_1 + Z_716_0_2 + Z_716_0_3
   + Z_716_0_4 <= 1
 constraint1_5570: Z_557_0_0 + Z_557_0_1 + Z_557_0_2 + Z_557_0_3
   + Z_557_0_4 <= 1
 constraint1_4040: Z_404_0_0 + Z_404_0_1 + Z_404_0_2 + Z_404_0_3
   + Z_404_0_4 <= 1
 constraint1_6360: Z_636_0_0 + Z_636_0_1 + Z_636_0_2 + Z_636_0_3
   + Z_636_0_4 <= 1
 constraint1_900: Z_90_0_0 + Z_90_0_1 + Z_90_0_2 + Z_90_0_3 + Z_90_0_4
   <= 1
 constraint1_1440: Z_144_0_0 + Z_144_0_1 + Z_144_0_2 + Z_144_0_3
   + Z_144_0_4 <= 1
 constraint1_2630: Z_263_0_0 + Z_263_0_1 + Z_263_0_2 + Z_263_0_3
   + Z_263_0_4 <= 1
 constraint1_6120: Z_612_0_0 + Z_612_0_1 + Z_612_0_2 + Z_612_0_3
   + Z_612_0_4 <= 1
 constraint1_7008: Z_700_8_0 + Z_700_8_1 + Z_700_8_2 + Z_700_8_3
   + Z_700_8_4 <= 1
 constraint1_7002: Z_700_2_0 + Z_700_2_1 + Z_700_2_2 + Z_700_2_3
   + Z_700_2_4 <= 1
 constraint1_7004: Z_700_4_0 + Z_700_4_1 + Z_700_4_2 + Z_700_4_3
   + Z_700_4_4 <= 1
 constraint1_7007: Z_700_7_0 + Z_700_7_1 + Z_700_7_2 + Z_700_7_3
   + Z_700_7_4 <= 1
 constraint1_7001: Z_700_1_0 + Z_700_1_1 + Z_700_1_2 + Z_700_1_3
   + Z_700_1_4 <= 1
 constraint1_7003: Z_700_3_0 + Z_700_3_1 + Z_700_3_2 + Z_700_3_3
   + Z_700_3_4 <= 1
 constraint1_7005: Z_700_5_0 + Z_700_5_1 + Z_700_5_2 + Z_700_5_3
   + Z_700_5_4 <= 1
 constraint1_7006: Z_700_6_0 + Z_700_6_1 + Z_700_6_2 + Z_700_6_3
   + Z_700_6_4 <= 1
 constraint2_7020: <= 1
 constraint2_7021: <= 1
 constraint2_7022: <= 1
 constraint2_7023: <= 1
 constraint2_7160: Z_716_0_0 <= 1
 constraint2_7161: Z_716_0_1 <= 1
 constraint2_7162: Z_716_0_2 <= 1
 constraint2_7163: Z_716_0_3 <= 1
 constraint2_5570: Z_557_0_0 <= 1
 constraint2_5571: Z_557_0_1 <= 1
 constraint2_5572: Z_557_0_2 <= 1
 constraint2_5573: Z_557_0_3 <= 1
 constraint2_4040: Z_404_0_0 <= 1
 constraint2_4041: Z_404_0_1 <= 1
 constraint2_4042: Z_404_0_2 <= 1
 constraint2_4043: Z_404_0_3 <= 1
 constraint2_6750: <= 1
 constraint2_6751: <= 1
 constraint2_6752: <= 1
 constraint2_6753: <= 1
 constraint2_6360: Z_636_0_0 <= 1
 constraint2_6361: Z_636_0_1 <= 1
 constraint2_6362: Z_636_0_2 <= 1
 constraint2_6363: Z_636_0_3 <= 1
 constraint2_3240: <= 1
 constraint2_3241: <= 1
 constraint2_3242: <= 1
 constraint2_3243: <= 1
 constraint2_6000: <= 1
 constraint2_6001: <= 1
 constraint2_6002: <= 1
 constraint2_6003: <= 1
 constraint2_6290: <= 1
 constraint2_6291: <= 1
 constraint2_6292: <= 1
 constraint2_6293: <= 1
 constraint2_900: Z_90_0_0 <= 1
 constraint2_901: Z_90_0_1 <= 1
 constraint2_902: Z_90_0_2 <= 1
 constraint2_903: Z_90_0_3 <= 1
 constraint2_6680: <= 1
 constraint2_6681: <= 1
 constraint2_6682: <= 1
 constraint2_6683: <= 1
 constraint2_5390: <= 1
 constraint2_5391: <= 1
 constraint2_5392: <= 1
 constraint2_5393: <= 1
 constraint2_1440: Z_144_0_0 <= 1
 constraint2_1441: Z_144_0_1 <= 1
 constraint2_1442: Z_144_0_2 <= 1
 constraint2_1443: Z_144_0_3 <= 1
 constraint2_2630: Z_263_0_0 <= 1
 constraint2_2631: Z_263_0_1 <= 1
 constraint2_2632: Z_263_0_2 <= 1
 constraint2_2633: Z_263_0_3 <= 1
 constraint2_1060: <= 1
 constraint2_1061: <= 1
 constraint2_1062: <= 1
 constraint2_1063: <= 1
 constraint2_5630: <= 1
 constraint2_5631: <= 1
 constraint2_5632: <= 1
 constraint2_5633: <= 1
 constraint2_6120: Z_612_0_0 <= 1
 constraint2_6121: Z_612_0_1 <= 1
 constraint2_6122: Z_612_0_2 <= 1
 constraint2_6123: Z_612_0_3 <= 1
 constraint2_7000: Z_700_8_0 + Z_700_2_0 + Z_700_4_0 + Z_700_7_0
   + Z_700_1_0 + Z_700_3_0 + Z_700_5_0 + Z_700_6_0 <= 1
 constraint2_7001: Z_700_8_1 + Z_700_2_1 + Z_700_4_1 + Z_700_7_1
   + Z_700_1_1 + Z_700_3_1 + Z_700_5_1 + Z_700_6_1 <= 1
 constraint2_7002: Z_700_8_2 + Z_700_2_2 + Z_700_4_2 + Z_700_7_2
   + Z_700_1_2 + Z_700_3_2 + Z_700_5_2 + Z_700_6_2 <= 1
 constraint2_7003: Z_700_8_3 + Z_700_2_3 + Z_700_4_3 + Z_700_7_3
   + Z_700_1_3 + Z_700_3_3 + Z_700_5_3 + Z_700_6_3 <= 1
Bounds
Binaries
 Z_716_0_0 Z_716_0_1 Z_716_0_2 Z_716_0_3 Z_716_0_4 Z_557_0_0 Z_557_0_1
 Z_557_0_2 Z_557_0_3 Z_557_0_4 Z_404_0_0 Z_404_0_1 Z_404_0_2 Z_404_0_3
 Z_404_0_4 Z_636_0_0 Z_636_0_1 Z_636_0_2 Z_636_0_3 Z_636_0_4 Z_90_0_0
 Z_90_0_1 Z_90_0_2 Z_90_0_3 Z_90_0_4 Z_144_0_0 Z_144_0_1 Z_144_0_2
 Z_144_0_3 Z_144_0_4 Z_263_0_0 Z_263_0_1 Z_263_0_2 Z_263_0_3 Z_263_0_4
 Z_612_0_0 Z_612_0_1 Z_612_0_2 Z_612_0_3 Z_612_0_4 Z_700_8_0 Z_700_8_1
 Z_700_8_2 Z_700_8_3 Z_700_8_4 Z_700_2_0 Z_700_2_1 Z_700_2_2 Z_700_2_3
 Z_700_2_4 Z_700_4_0 Z_700_4_1 Z_700_4_2 Z_700_4_3 Z_700_4_4 Z_700_7_0
 Z_700_7_1 Z_700_7_2 Z_700_7_3 Z_700_7_4 Z_700_1_0 Z_700_1_1 Z_700_1_2
 Z_700_1_3 Z_700_1_4 Z_700_3_0 Z_700_3_1 Z_700_3_2 Z_700_3_3 Z_700_3_4
 Z_700_5_0 Z_700_5_1 Z_700_5_2 Z_700_5_3 Z_700_5_4 Z_700_6_0 Z_700_6_1
 Z_700_6_2 Z_700_6_3 Z_700_6_4
End
